\ This file has been generated by DOcplex
\ ENCODING=ISO-8859-1
\Problem name: random_problem.lp

Minimize
 obj: - 632 x0 - 316 x1 - 158 x2 + 1072 x3 + 536 x4 + 268 x5 - 248 x6 - 124 x7
      - 62 x8 - 1744 x9 - 872 x10 - 436 x11 + [ 82592 x0^2 + 82592 x0*x1
      + 41296 x0*x2 + 14144 x0*x3 + 7072 x0*x4 + 3536 x0*x5 + 5504 x0*x6
      + 2752 x0*x7 + 1376 x0*x8 - 4992 x0*x9 - 2496 x0*x10 - 1248 x0*x11
      + 20648 x1^2 + 20648 x1*x2 + 7072 x1*x3 + 3536 x1*x4 + 1768 x1*x5
      + 2752 x1*x6 + 1376 x1*x7 + 688 x1*x8 - 2496 x1*x9 - 1248 x1*x10
      - 624 x1*x11 + 5162 x2^2 + 3536 x2*x3 + 1768 x2*x4 + 884 x2*x5
      + 1376 x2*x6 + 688 x2*x7 + 344 x2*x8 - 1248 x2*x9 - 624 x2*x10
      - 312 x2*x11 + 7616 x3^2 + 7616 x3*x4 + 3808 x3*x5 + 3776 x3*x6
      + 1888 x3*x7 + 944 x3*x8 + 10880 x3*x9 + 5440 x3*x10 + 2720 x3*x11
      + 1904 x4^2 + 1904 x4*x5 + 1888 x4*x6 + 944 x4*x7 + 472 x4*x8 + 5440 x4*x9
      + 2720 x4*x10 + 1360 x4*x11 + 476 x5^2 + 944 x5*x6 + 472 x5*x7 + 236 x5*x8
      + 2720 x5*x9 + 1360 x5*x10 + 680 x5*x11 + 1760 x6^2 + 1760 x6*x7
      + 880 x6*x8 + 5184 x6*x9 + 2592 x6*x10 + 1296 x6*x11 + 440 x7^2
      + 440 x7*x8 + 2592 x7*x9 + 1296 x7*x10 + 648 x7*x11 + 110 x8^2
      + 1296 x8*x9 + 648 x8*x10 + 324 x8*x11 + 26688 x9^2 + 26688 x9*x10
      + 13344 x9*x11 + 6672 x10^2 + 6672 x10*x11 + 1668 x11^2 ]/2
Subject To
 c0: 4 x0 + 2 x1 + x2 + 4 x3 + 2 x4 + x5 + 4 x6 + 2 x7 + x8 + 4 x9 + 2 x10 + x11
      = 7

Bounds
 0 <= x0 <= 1
 0 <= x1 <= 1
 0 <= x2 <= 1
 0 <= x3 <= 1
 0 <= x4 <= 1
 0 <= x5 <= 1
 0 <= x6 <= 1
 0 <= x7 <= 1
 0 <= x8 <= 1
 0 <= x9 <= 1
 0 <= x10 <= 1
 0 <= x11 <= 1

Binaries
 x0 x1 x2 x3 x4 x5 x6 x7 x8 x9 x10 x11
End
